nNurses = 157;
nHours = 32;
minHours = 7;
maxHours = 12;
maxConsec = 10;
maxPresence = 30;
demand = [12, 13, 12, 10, 10, 6, 11, 15, 12, 14, 14, 16, 19, 14, 12, 14, 18, 23, 23, 19, 19, 23, 22, 20, 22, 25, 20, 17, 14, 13, 8, 10];
